c This is a random SAT instance with 10 variables and 20 clauses
p cnf 10 20
9 10 8 -6 -7 -4 4 3 -5 0
3 1 -4 -8 6 8 0
5 10 7 4 -1 -8 -7 -5 3 0
-8 3 -9 -6 -4 0
-6 -4 -8 -9 -3 -2 0
-10 -9 8 10 -1 -3 6 7 0
2 0
10 0
2 7 -2 -6 -8 -4 3 6 8 0
1 -4 -2 10 -7 7 0
-6 10 -9 -2 -7 0
7 0
-10 1 -8 5 2 -4 7 0
2 -8 10 7 0
1 9 -9 -5 8 5 -3 -6 6 -2 0
-3 0
2 7 -3 -1 10 -9 0
-10 7 -4 -3 9 0
-3 5 0
2 3 -7 -3 4 0